data/processed_heuristic-threshold/instances/1/9/ds_723_courier_435/pairwise.tsp
NAME: ds_723_courier_435
TYPE: TSP
COMMENT: nil
DIMENSION: 10
EDGE_WEIGHT_TYPE: EXPLICIT
EDGE_WEIGHT_FORMAT: FULL_MATRIX
EDGE_WEIGHT_SECTION
9999 1350 774 368 565 813 1227 1337 1454 940 
1350 9999 856 984 865 538 336 1378 321 966 
774 856 9999 558 695 514 587 1633 807 1129 
368 984 558 9999 244 447 890 1171 1111 699 
565 865 695 244 9999 362 856 954 1055 465 
813 538 514 447 362 9999 495 1168 694 669 
1227 336 587 890 856 495 9999 1575 230 1106 
1337 1378 1633 1171 954 1168 1575 9999 1685 505 
1454 321 807 1111 1055 694 230 1685 9999 1247 
940 966 1129 699 465 669 1106 505 1247 9999 
