data/processed_heuristic-threshold/instances/1/9/ds_723_courier_435/pairwise.sol
10
0 2 6 8 1 5 9 7 4 3 
